%%%%%%%%%%%%%%%%%%%%%%%%%%%%%%%%%%%%%%%%%%%%%%%%%%%%%%%%%%%%%%%%%%%%%%%%%
%FILE DATA:	Soccer Computational Problem for MiniZinc Models
%AUTHORS:	Robinson Duque, Alejandro Arbelaez, Juan Francisco Díaz
%CONTACT:  	robinson.duque@correounivalle.edu.co 
%LAST UPDATE:	May, 2018 
%ROUND ROBIN:2
%TEAMS:20
%PRESENT FIXTURE:28
%FIXTURES TO PLAY:10
%GAMES TO PLAY:100
%%%%%%%%%%%%%%%%%%%%%%%%%%%%%%%%%%%%%%%%%%%%%%%%%%%%%%%%%%%%%%%%%%%%%%%%%
%Number of teams:
n=20;

%For the purpose of our models, we offer two representations of the games to play, namely fixtures and games to play:

%Fixtures to play:
%fixtures=[|0,1,1,0,0,0,1,1,0,1,1,0,0,1,1,1,0,0,1,0
%|1,0,1,0,1,1,0,1,0,0,1,0,0,1,1,1,0,0,1,0
%|1,1,0,1,0,1,1,0,0,1,0,0,1,1,0,0,1,0,0,1
%|0,0,1,0,0,0,1,1,1,1,0,0,1,1,0,1,0,1,0,1
%|0,1,0,0,0,0,1,1,1,1,0,1,0,1,1,0,0,1,1,0
%|0,1,1,0,0,0,0,1,1,0,0,1,0,1,0,1,0,1,1,1
%|1,0,1,1,1,0,0,0,1,1,1,1,1,0,0,0,0,0,1,0
%|1,1,0,1,1,1,0,0,1,1,1,1,0,0,0,0,0,0,0,1
%|0,0,0,1,1,1,1,1,0,0,0,1,0,0,1,0,0,1,1,1
%|1,0,1,1,1,0,1,1,0,0,0,0,1,0,1,0,1,0,0,1
%|1,1,0,0,0,0,1,1,0,0,0,1,1,1,0,1,1,0,0,1
%|0,0,0,0,1,1,1,1,1,0,1,0,0,0,1,1,1,0,1,0
%|0,0,1,1,0,0,1,0,0,1,1,0,0,0,0,1,1,1,1,1
%|1,1,1,1,1,1,0,0,0,0,1,0,0,0,0,1,1,1,0,0
%|1,1,0,0,1,0,0,0,1,1,0,1,0,0,0,1,1,1,0,1
%|1,1,0,1,0,1,0,0,0,0,1,1,1,1,1,0,1,0,0,0
%|0,0,1,0,0,0,0,0,0,1,1,1,1,1,1,1,0,1,1,0
%|0,0,0,1,1,1,0,0,1,0,0,0,1,1,1,0,1,0,1,1
%|1,1,0,0,1,1,1,0,1,0,0,1,1,0,0,0,1,1,0,0
%|0,0,1,1,0,1,0,1,1,1,1,0,1,0,1,0,0,1,0,0|];

%Played Fixtures:
%PlayedFixtures=[|0,1,1,2,2,2,1,1,2,1,1,2,2,1,1,1,2,2,1,2
%|1,0,1,2,1,1,2,1,2,2,1,2,2,1,1,1,2,2,1,2
%|1,1,0,1,2,1,1,2,2,1,2,2,1,1,2,2,1,2,2,1
%|2,2,1,0,2,2,1,1,1,1,2,2,1,1,2,1,2,1,2,1
%|2,1,2,2,0,2,1,1,1,1,2,1,2,1,1,2,2,1,1,2
%|2,1,1,2,2,0,2,1,1,2,2,1,2,1,2,1,2,1,1,1
%|1,2,1,1,1,2,0,2,1,1,1,1,1,2,2,2,2,2,1,2
%|1,1,2,1,1,1,2,0,1,1,1,1,2,2,2,2,2,2,2,1
%|2,2,2,1,1,1,1,1,0,2,2,1,2,2,1,2,2,1,1,1
%|1,2,1,1,1,2,1,1,2,0,2,2,1,2,1,2,1,2,2,1
%|1,1,2,2,2,2,1,1,2,2,0,1,1,1,2,1,1,2,2,1
%|2,2,2,2,1,1,1,1,1,2,1,0,2,2,1,1,1,2,1,2
%|2,2,1,1,2,2,1,2,2,1,1,2,0,2,2,1,1,1,1,1
%|1,1,1,1,1,1,2,2,2,2,1,2,2,0,2,1,1,1,2,2
%|1,1,2,2,1,2,2,2,1,1,2,1,2,2,0,1,1,1,2,1
%|1,1,2,1,2,1,2,2,2,2,1,1,1,1,1,0,1,2,2,2
%|2,2,1,2,2,2,2,2,2,1,1,1,1,1,1,1,0,1,1,2
%|2,2,2,1,1,1,2,2,1,2,2,2,1,1,1,2,1,0,1,1
%|1,1,2,2,1,1,1,2,1,2,2,1,1,2,2,2,1,1,0,2
%|2,2,1,1,2,1,2,1,1,1,1,2,1,2,1,2,2,1,2,0|];

%Games to play:
games=[|2,1|3,1|3,2|4,3|5,2|6,2|6,3|7,1|7,3|7,4|7,5|8,1|8,2|8,4|8,5|8,6|9,4|9,5|9,6|9,7|9,8|10,1|10,3|10,4|10,5|10,7|10,8|11,1|11,2|11,7|11,8|12,5|12,6|12,7|12,8|12,9|12,11|13,3|13,4|13,7|13,10|13,11|14,1|14,2|14,3|14,4|14,5|14,6|14,11|15,1|15,2|15,5|15,9|15,10|15,12|16,1|16,2|16,4|16,6|16,11|16,12|16,13|16,14|16,15|17,3|17,10|17,11|17,12|17,13|17,14|17,15|17,16|18,4|18,5|18,6|18,9|18,13|18,14|18,15|18,17|19,1|19,2|19,5|19,6|19,7|19,9|19,12|19,13|19,17|19,18|20,3|20,4|20,6|20,8|20,9|20,10|20,11|20,13|20,15|20,18|];

%Played Games:
%PlayedGames=[|2,1|3,1|3,2|4,1|4,1|4,2|4,2|4,3|5,1|5,1|5,2|5,3|5,3|5,4|5,4|6,1|6,1|6,2|6,3|6,4|6,4|6,5|6,5|7,1|7,2|7,2|7,3|7,4|7,5|7,6|7,6|8,1|8,2|8,3|8,3|8,4|8,5|8,6|8,7|8,7|9,1|9,1|9,2|9,2|9,3|9,3|9,4|9,5|9,6|9,7|9,8|10,1|10,2|10,2|10,3|10,4|10,5|10,6|10,6|10,7|10,8|10,9|10,9|11,1|11,2|11,3|11,3|11,4|11,4|11,5|11,5|11,6|11,6|11,7|11,8|11,9|11,9|11,10|11,10|12,1|12,1|12,2|12,2|12,3|12,3|12,4|12,4|12,5|12,6|12,7|12,8|12,9|12,10|12,10|12,11|13,1|13,1|13,2|13,2|13,3|13,4|13,5|13,5|13,6|13,6|13,7|13,8|13,8|13,9|13,9|13,10|13,11|13,12|13,12|14,1|14,2|14,3|14,4|14,5|14,6|14,7|14,7|14,8|14,8|14,9|14,9|14,10|14,10|14,11|14,12|14,12|14,13|14,13|15,1|15,2|15,3|15,3|15,4|15,4|15,5|15,6|15,6|15,7|15,7|15,8|15,8|15,9|15,10|15,11|15,11|15,12|15,13|15,13|15,14|15,14|16,1|16,2|16,3|16,3|16,4|16,5|16,5|16,6|16,7|16,7|16,8|16,8|16,9|16,9|16,10|16,10|16,11|16,12|16,13|16,14|16,15|17,1|17,1|17,2|17,2|17,3|17,4|17,4|17,5|17,5|17,6|17,6|17,7|17,7|17,8|17,8|17,9|17,9|17,10|17,11|17,12|17,13|17,14|17,15|17,16|18,1|18,1|18,2|18,2|18,3|18,3|18,4|18,5|18,6|18,7|18,7|18,8|18,8|18,9|18,10|18,10|18,11|18,11|18,12|18,12|18,13|18,14|18,15|18,16|18,16|18,17|19,1|19,2|19,3|19,3|19,4|19,4|19,5|19,6|19,7|19,8|19,8|19,9|19,10|19,10|19,11|19,11|19,12|19,13|19,14|19,14|19,15|19,15|19,16|19,16|19,17|19,18|20,1|20,1|20,2|20,2|20,3|20,4|20,5|20,5|20,6|20,7|20,7|20,8|20,9|20,10|20,11|20,12|20,12|20,13|20,14|20,14|20,15|20,16|20,16|20,17|20,17|20,18|20,19|20,19|];

%Played Games - Win Results:
%% 0  0  1  2  0  0  1  1  0  0  1  2  2  1  0  0  2  2  1  1
%% 1  0  0  2  0  1  0  0  1  0  0  2  0  0  0  0  2  0  1  0
%% 0  0  0  0  0  0  0  0  0  0  0  0  0  0  0  0  0  0  0  0
%% 0  0  0  0  0  0  0  0  1  0  0  0  0  0  0  0  0  0  0  0
%% 0  0  0  0  0  0  0  0  0  0  0  0  0  0  0  0  0  0  0  0
%% 0  0  0  0  0  0  0  0  0  0  0  0  0  0  0  0  0  0  0  0
%% 0  0  1  1  1  0  0  0  0  0  0  0  1  0  2  0  0  2  0  0
%% 0  0  0  1  1  1  0  0  1  0  0  0  0  0  0  0  0  2  0  0
%% 0  0  0  0  0  1  0  0  0  0  0  0  0  0  0  0  0  0  0  0
%% 0  0  0  0  1  0  0  0  0  0  0  0  0  0  0  0  1  0  0  0
%% 0  0  0  0  0  0  0  1  0  1  0  0  1  1  2  0  0  0  0  0
%% 0  0  0  0  0  0  0  0  1  0  0  0  0  0  0  0  0  2  0  0
%% 0  0  1  0  0  0  0  0  0  0  0  0  0  0  0  0  0  0  0  1
%% 0  0  1  1  1  1  0  0  2  0  0  2  0  0  0  0  0  0  0  0
%% 0  0  0  0  1  0  0  0  0  1  0  0  0  0  0  0  0  0  0  0
%% 0  0  0  0  0  1  0  0  0  1  1  1  0  0  0  0  0  2  2  0
%% 0  0  0  0  0  0  0  0  0  0  0  0  0  0  0  0  0  0  0  0
%% 0  0  0  0  1  1  0  0  0  0  0  0  0  0  0  0  0  0  0  0
%% 0  0  0  0  1  1  1  0  0  2  0  0  1  0  2  0  0  0  0  0
%% 0  0  1  0  0  1  0  0  0  0  0  0  0  0  0  0  0  0  0  0
%Played Games - Tie Results:
%% 0  0  0  0  2  2  0  0  2  1  0  0  0  0  1  1  0  0  0  1
%% 0  0  1  0  1  0  2  1  1  2  1  0  2  1  1  1  0  2  0  2
%% 0  1  0  1  2  1  0  2  2  1  2  2  0  0  2  2  1  2  2  0
%% 0  0  1  0  2  2  0  0  0  1  2  2  1  0  2  1  2  1  2  1
%% 2  1  2  2  0  2  0  0  1  0  2  1  2  0  0  2  2  0  0  2
%% 2  0  1  2  2  0  2  0  0  2  2  1  2  0  2  0  2  0  0  0
%% 0  2  0  0  0  2  0  2  1  1  1  1  0  2  0  2  2  0  0  2
%% 0  1  2  0  0  0  2  0  0  1  0  1  2  2  2  2  2  0  2  1
%% 2  1  2  0  1  0  1  0  0  2  2  0  2  0  1  2  2  1  1  1
%% 1  2  1  1  0  2  1  1  2  0  1  2  1  2  0  1  0  2  0  1
%% 0  1  2  2  2  2  1  0  2  1  0  1  0  0  0  0  1  2  2  1
%% 0  0  2  2  1  1  1  1  0  2  1  0  2  0  1  0  1  0  1  2
%% 0  2  0  1  2  2  0  2  2  1  0  2  0  2  2  1  1  1  0  0
%% 0  1  0  0  0  0  2  2  0  2  0  0  2  0  2  1  1  1  2  2
%% 1  1  2  2  0  2  0  2  1  0  0  1  2  2  0  1  1  1  0  1
%% 1  1  2  1  2  0  2  2  2  1  0  0  1  1  1  0  1  0  0  2
%% 0  0  1  2  2  2  2  2  2  0  1  1  1  1  1  1  0  1  1  2
%% 0  2  2  1  0  0  0  0  1  2  2  0  1  1  1  0  1  0  1  1
%% 0  0  2  2  0  0  0  2  1  0  2  1  0  2  0  0  1  1  0  2
%% 1  2  0  1  2  0  2  1  1  1  1  2  0  2  1  2  2  1  2  0
%Played Games - Lose Results:
%% 0  1  0  0  0  0  0  0  0  0  0  0  0  0  0  0  0  0  0  0
%% 0  0  0  0  0  0  0  0  0  0  0  0  0  0  0  0  0  0  0  0
%% 1  0  0  0  0  0  1  0  0  0  0  0  1  1  0  0  0  0  0  1
%% 2  2  0  0  0  0  1  1  0  0  0  0  0  1  0  0  0  0  0  0
%% 0  0  0  0  0  0  1  1  0  1  0  0  0  1  1  0  0  1  1  0
%% 0  1  0  0  0  0  0  1  1  0  0  0  0  1  0  1  0  1  1  1
%% 1  0  0  0  0  0  0  0  0  0  0  0  0  0  0  0  0  0  1  0
%% 1  0  0  0  0  0  0  0  0  0  1  0  0  0  0  0  0  0  0  0
%% 0  1  0  1  0  0  0  1  0  0  0  1  0  2  0  0  0  0  0  0
%% 0  0  0  0  0  0  0  0  0  0  1  0  0  0  1  1  0  0  2  0
%% 1  0  0  0  0  0  0  0  0  0  0  0  0  0  0  1  0  0  0  0
%% 2  2  0  0  0  0  0  0  0  0  0  0  0  2  0  1  0  0  0  0
%% 2  0  0  0  0  0  1  0  0  0  1  0  0  0  0  0  0  0  1  0
%% 1  0  0  0  0  0  0  0  0  0  1  0  0  0  0  0  0  0  0  0
%% 0  0  0  0  0  0  2  0  0  0  2  0  0  0  0  0  0  0  2  0
%% 0  0  0  0  0  0  0  0  0  0  0  0  0  0  0  0  0  0  0  0
%% 2  2  0  0  0  0  0  0  0  1  0  0  0  0  0  0  0  0  0  0
%% 2  0  0  0  0  0  2  2  0  0  0  2  0  0  0  2  0  0  0  0
%% 1  1  0  0  0  0  0  0  0  0  0  0  0  0  0  2  0  0  0  0
%% 1  0  0  0  0  0  0  0  0  0  0  0  1  0  0  0  0  0  0  0

%%Initial points:
iPoints=[61, 48, 23, 23, 21, 20, 42, 38, 24, 27, 38, 27, 27, 42, 26, 44, 23, 22, 40, 30];

%%Initial positions:
%iPositions=[1, 2, 17, 16, 19, 20, 5, 8, 14, 12, 7, 11, 10, 4, 13, 3, 15, 18, 6, 9];

%%Position Constraints:
%numberPositionConstraints=1;

%%Total Fixtures:
%totalFixtures=38;

%%Fixtures to Play:
%fixturesToPlay=10;

%%Position Constraints Built With
%wantedPoints=[1, 1, 0, 3, 1, 3, 3, 1, 3, 0, 3, 0, 1, 1, 0, 3, 0, 3, 3, 1, 1, 0, 1, 0, 3, 1, 1, 1, 3, 0, 0, 0, 3, 0, 0, 1, 0, 3, 0, 1, 0, 1, 3, 0, 3, 3, 3, 1, 1, 0, 1, 3, 1, 0, 1, 1, 1, 0, 1, 0, 0, 3, 1, 3, 3, 0, 3, 0, 0, 1, 1, 1, 1, 0, 1, 1, 0, 3, 0, 3, 0, 0, 3, 0, 0, 0, 3, 3, 3, 3, 3, 3, 1, 3, 0, 1, 0, 1, 1, 0];

%%Probabilities:
probabilities=[|4,52,0,44,|66,14,0,20,|7,26,0,67,|93,5,0,2,|30,60,0,10,|87,12,0,1,|55,27,0,18,|19,50,0,31,|30,51,0,19,|40,33,0,27,|71,4,0,25,|17,35,0,48,|92,0,0,8,|81,16,0,3,|11,5,0,84,|9,72,0,19,|28,45,0,27,|4,90,0,6,|5,1,0,94,|16,61,0,23,|79,17,0,4,|59,5,0,36,|83,16,0,1,|97,1,0,2,|34,62,0,4,|54,10,0,36,|92,0,0,8,|55,26,0,19,|84,9,0,7,|14,64,0,22,|79,3,0,18,|30,30,0,40,|0,98,0,2,|46,7,0,47,|10,32,0,58,|59,35,0,6,|28,4,0,68,|59,1,0,40,|7,50,0,43,|85,11,0,4,|71,12,0,17,|7,80,0,13,|8,86,0,6,|44,9,0,47,|12,35,0,53,|25,49,0,26,|20,26,0,54,|18,22,0,60,|9,85,0,6,|68,19,0,13,|41,31,0,28,|9,19,0,72,|98,1,0,1,|0,30,0,70,|69,9,0,22,|37,28,0,35,|1,56,0,43,|78,2,0,20,|2,77,0,21,|61,19,0,20,|67,12,0,21,|66,31,0,3,|4,18,0,78,|90,5,0,5,|64,3,0,33,|78,6,0,16,|78,11,0,11,|23,69,0,8,|50,5,0,45,|78,18,0,4,|11,7,0,82,|15,72,0,13,|61,6,0,33,|18,13,0,69,|67,12,0,21,|84,13,0,3,|11,71,0,18,|96,4,0,0,|59,20,0,21,|70,3,0,27,|19,18,0,63,|32,1,0,67,|81,16,0,3,|2,95,0,3,|50,0,0,50,|45,35,0,20,|60,5,0,35,|12,61,0,27,|99,0,0,1,|63,3,0,34,|92,7,0,1,|38,60,0,2,|17,2,0,81,|90,3,0,7,|64,16,0,20,|34,4,0,62,|25,47,0,28,|22,30,0,48,|99,1,0,0,|3,24,0,73,|];


%POSITION CONSTRAINTS
%%[|teamID, operator, position|...]
%%operators index:
%%%1 for =  operator
%%%2 for >  operator
%%%3 for >= operator
%%%4 for <  operator
%%%5 for <= operator

positionConstraints=[|1,1,1|];

%SCORE VECTOR CONSTRAINTS
%%[|teamID, operator, wantedPoints|...]
%%operators index:
%%%1 for =  operator
%%%2 for >  operator
%%%3 for >= operator
%%%4 for <  operator
%%%5 for <= operator

%scoreVectorConstraints=[|1,1,78|];

%Instance Features:
%features=T,FP,TF,C,C/T,C/TF,FP/TF,FP/T,FP*C/T,FP*T/C,(C/T)*(FP/TF),Distance,Distance/C,Distance/T,Distance/(C*T)
%values=20,10,38,1,0.05,0.02631578947368421,0.2631578947368421,0.5,0.5,200.0,0.0131578947368421,0,0.0,0.0,0.0



